Runna_Tutto.out
-r \033[0;31mStarting!\033[0m
-r \033[0;31mStart inst 1\033[0m
Set parameter Username
Academic license - for non-commercial use only - expires 2022-07-28
Set parameter PoolSearchMode to value 2
Set parameter TimeLimit to value 300
Gurobi Optimizer version 9.5.1 build v9.5.1rc2 (linux64)
Thread count: 6 physical cores, 12 logical processors, using up to 12 threads
Optimize a model with 5216 rows, 5084 columns and 29883 nonzeros
Model fingerprint: 0xb92d00e5
Model has 4920 quadratic constraints
Variable types: 0 continuous, 5084 integer (5043 binary)
Coefficient statistics:
  Matrix range     [1e+00, 2e+02]
  QMatrix range    [1e+00, 1e+00]
  QLMatrix range   [1e+00, 1e+00]
  Objective range  [7e+00, 2e+02]
  Bounds range     [1e+00, 4e+01]
  RHS range        [1e+00, 7e+02]
Presolve removed 326 rows and 124 columns
Presolve time: 0.06s
Presolved: 4890 rows, 4960 columns, 38380 nonzeros
Variable types: 0 continuous, 4960 integer (4920 binary)

Root relaxation: objective 8.790000e+02, 210 iterations, 0.00 seconds (0.00 work units)

    Nodes    |    Current Node    |     Objective Bounds      |     Work
 Expl Unexpl |  Obj  Depth IntInf | Incumbent    BestBd   Gap | It/Node Time

     0     0  879.00000    0   81          -  879.00000      -     -    0s
     0     0  926.31707    0  150          -  926.31707      -     -    0s
     0     0  972.91667    0  120          -  972.91667      -     -    0s
     0     0  975.25000    0  114          -  975.25000      -     -    0s
     0     0  981.00000    0  100          -  981.00000      -     -    0s
     0     0  984.00000    0  102          -  984.00000      -     -    0s
     0     0  984.00000    0   99          -  984.00000      -     -    0s
H    0     0                    1524.0000000  986.50000  35.3%     -    0s
     0     0  986.50000    0  110 1524.00000  986.50000  35.3%     -    0s
     0     0  989.00000    0  120 1524.00000  989.00000  35.1%     -    0s
     0     0  989.00000    0  117 1524.00000  989.00000  35.1%     -    0s
     0     0  990.07317    0  131 1524.00000  990.07317  35.0%     -    0s
H    0     0                    1476.0000000  990.07317  32.9%     -    0s
H    0     0                    1431.0000000  990.07317  30.8%     -    0s
     0     0  990.07317    0  119 1431.00000  990.07317  30.8%     -    0s
H    0     0                    1414.0000000  990.07317  30.0%     -    1s
     0     0 1033.12195    0  164 1414.00000 1033.12195  26.9%     -    1s
     0     0 1033.12195    0  160 1414.00000 1033.12195  26.9%     -    1s
     0     0 1038.00000    0  118 1414.00000 1038.00000  26.6%     -    1s
     0     0 1038.00000    0  125 1414.00000 1038.00000  26.6%     -    1s
     0     0 1038.00000    0  137 1414.00000 1038.00000  26.6%     -    1s
     0     0 1038.00000    0  118 1414.00000 1038.00000  26.6%     -    1s
     0     0 1038.00000    0  104 1414.00000 1038.00000  26.6%     -    1s
     0     0 1038.00000    0  119 1414.00000 1038.00000  26.6%     -    1s
     0     0 1038.00000    0   98 1414.00000 1038.00000  26.6%     -    1s
     0     0 1038.00000    0   98 1414.00000 1038.00000  26.6%     -    1s
     0     2 1042.00000    0   91 1414.00000 1042.00000  26.3%     -    1s
H   31    38                    1391.0000000 1042.00000  25.1%  80.1    3s
H   32    38                    1379.0000000 1042.00000  24.4%  79.8    3s
H   33    38                    1361.0000000 1042.00000  23.4%  81.2    3s
H   70    72                    1343.0000000 1042.00000  22.4%  56.3    3s
H  100   105                    1342.0000000 1042.00000  22.4%  47.4    4s
H  135   138                    1336.0000000 1042.00000  22.0%  42.5    4s
H  169   175                    1333.0000000 1042.00000  21.8%  40.6    4s
H  170   175                    1319.0000000 1042.00000  21.0%  40.4    4s
H  365   381                    1316.0000000 1042.00000  20.8%  26.8    4s
H  371   381                    1295.0000000 1042.00000  19.5%  26.5    4s
   597   639 1083.14092   85   57 1295.00000 1042.00000  19.5%  20.7    5s
H  688   703                    1294.0000000 1042.00000  19.5%  19.4    6s
H  753   750                    1291.0000000 1042.00000  19.3%  18.7    6s
H 2042  1063                    1226.0000000 1042.00000  15.0%  16.7   10s
  2057   969 1091.74760   37  125 1226.00000 1043.00000  14.9%  16.6   15s
H 2062   924                    1218.0000000 1043.00000  14.4%  16.6   17s
  2096   953 1043.00000   17  126 1218.00000 1043.00000  14.4%  23.7   20s
H 2183   980                    1210.0000000 1043.00000  13.8%  24.8   21s
H 2398   973                    1208.0000000 1043.00000  13.7%  25.4   22s
H 2484   994                    1167.0000000 1043.00000  10.6%  25.6   24s
  2831  1203     cutoff   95      1167.00000 1043.00000  10.6%  26.4   25s
H 3959  1836                    1166.0000000 1043.00000  10.5%  27.3   27s
  5605  3203 1064.11836  143   94 1166.00000 1043.00000  10.5%  26.9   30s
H 6474  3602                    1155.9999938 1043.00000  9.78%  26.4   33s
H 6499  3644                    1155.9999703 1043.00000  9.78%  26.4   34s
H 6505  3644                    1155.9999689 1043.00000  9.78%  26.4   34s
  7009  4400 1053.21726   44  117 1155.99997 1043.00000  9.78%  26.0   35s
 10135  7455 1047.81312   40  115 1155.99997 1043.00000  9.78%  24.7   40s
H11389  8467                    1155.9999119 1043.07458  9.77%  24.3   41s
H11777  8640                    1155.9998398 1043.07458  9.77%  24.3   42s
H11806  8640                    1155.9998294 1043.07458  9.77%  24.4   42s
H11887  8640                    1155.9998145 1043.07458  9.77%  24.4   42s
H12068  8890                    1155.9998009 1043.07458  9.77%  24.5   43s
H12165  8890                    1155.9997959 1043.07458  9.77%  24.7   43s
 12555  9895 1054.86717   82  111 1155.99980 1043.07458  9.77%  24.9   49s
 13429 10132 1077.19242  316  105 1155.99980 1043.07458  9.77%  24.7   50s
H14756 11384                    1155.9997847 1043.08880  9.77%  24.1   52s
H15684 12102                    1155.9997796 1043.09167  9.77%  24.0   54s
 15870 12455     cutoff   73      1155.99978 1043.09167  9.77%  24.2   55s
H16054 12455                    1155.9997660 1043.09167  9.77%  24.4   55s
H16539 13098                    1155.9997498 1043.09167  9.77%  24.6   56s
H17862 14685                    1155.9997345 1043.09167  9.77%  24.9   59s
H18003 14685                    1155.9997290 1043.09167  9.77%  24.9   59s
H18309 14685                    1155.9996800 1043.09167  9.77%  24.9   59s
H18737 15396                    1155.9996646 1043.09167  9.77%  24.7   60s
H19892 16086                    1155.9996610 1043.09167  9.77%  24.1   61s
H20231 16690                    1155.9996403 1043.09167  9.77%  24.2   62s
H20632 16690                    1155.9996062 1043.09167  9.77%  24.1   62s
H20917 17164                    1155.9995877 1043.09167  9.77%  24.3   63s
H21065 17164                    1155.9995171 1043.09554  9.77%  24.3   63s
H21490 17532                    1155.9995144 1043.09554  9.77%  24.7   64s
H21560 17532                    1155.9994985 1043.11116  9.77%  24.7   64s
H21629 17532                    1155.9994749 1043.11500  9.77%  24.8   64s
 21918 18231 1066.20188   72  127 1155.99947 1043.11603  9.77%  25.0   65s
H22230 18231                    1155.9994577 1043.11603  9.77%  24.9   65s
H22532 18231                    1155.9994542 1043.11603  9.77%  25.0   65s
H22756 18663                    1155.9994316 1043.11603  9.77%  24.9   66s
H23188 18733                    1155.9994159 1043.11603  9.77%  25.1   68s
 23835 19911 1112.56962   63  111 1155.99942 1043.16582  9.76%  25.3   70s
H25527 20750                    1155.9993960 1043.18660  9.76%  25.0   96s
 25528 17791 1076.64471   87   98 1155.99940 1043.18660  9.76%  25.0  100s
 25538 17798 1070.71102  240  113 1155.99940 1043.18660  9.76%  25.0  106s
 25540 17799 1063.00000   72   52 1155.99940 1043.18660  9.76%  25.0  110s
 25545 17805 1043.18660   28  145 1155.99940 1043.18660  9.76%  25.3  115s
 25660 17896 1044.23077   39  100 1155.99940 1043.18660  9.76%  25.5  120s
H25890 17143                    1155.9993788 1043.18660  9.76%  25.7  122s
H25943 16320                    1132.0000000 1043.18660  7.85%  25.8  123s
 26090 15610 1076.16618   67  105 1132.00000 1043.18660  7.85%  26.0  125s
 27046 14581 1083.43655  153  124 1132.00000 1043.18660  7.85%  26.6  130s
 28127 13026 1098.56768  260  127 1132.00000 1043.18660  7.85%  26.8  135s
 30233 14244 1048.60148   44  132 1132.00000 1043.18660  7.85%  27.6  140s
 32181 13444 1052.29418   59  111 1132.00000 1043.18660  7.85%  27.3  145s
 34841 14482     cutoff  167      1132.00000 1043.18660  7.85%  28.4  151s
 36878 16203 1070.27914  251  122 1132.00000 1043.18660  7.85%  28.7  155s
 38326 16216 1092.54597   70   61 1132.00000 1044.30909  7.75%  29.0  160s
 38335 16222 1085.64742  336   86 1132.00000 1044.30909  7.75%  29.0  165s
 38340 16228 1044.30909   42  124 1132.00000 1044.30909  7.75%  29.2  170s
 38358 16243 1044.30909   45  169 1132.00000 1044.30909  7.75%  29.3  175s
 38617 16408 1045.19017   60   32 1132.00000 1044.30909  7.75%  29.6  180s
 39112 16641 1048.15186   99   71 1132.00000 1044.30909  7.75%  29.9  185s
 41103 17574 1087.80373   96  100 1132.00000 1044.30909  7.75%  30.4  190s
 43227 18595 1084.03419  116  111 1132.00000 1044.83253  7.70%  30.7  196s
 45743 19725 1053.01216  123  141 1132.00000 1045.00000  7.69%  30.5  201s
 48377 21915 1060.42500   77  125 1132.00000 1045.00000  7.69%  30.4  205s
 51260 23732 1075.74145  125   91 1132.00000 1045.28632  7.66%  30.4  210s
 55888 25476 1054.68942   58  131 1132.00000 1045.70201  7.62%  30.6  215s
 59493 27481 1084.70598   67   78 1132.00000 1046.02015  7.60%  30.7  220s
 63003 28959 1085.94767  194  115 1132.00000 1046.21029  7.58%  30.8  225s
 65848 29900 1054.82906   63  117 1132.00000 1046.34555  7.57%  30.9  230s
H68189 30539                    1130.0000000 1046.44969  7.39%  30.9  234s
 69006 30928 1050.07965   55  220 1130.00000 1046.56861  7.38%  31.2  235s
 72372 28792 1052.40484   73   69 1130.00000 1046.66647  7.37%  31.6  240s
 74537 30209 1126.46585   88   88 1130.00000 1046.78286  7.36%  31.7  245s
 76541 32037 1097.56944  197  127 1130.00000 1046.81024  7.36%  31.9  250s
 79973 34967 1067.15705  179   88 1130.00000 1047.00000  7.35%  31.8  255s
 82572 36466 1050.17849   64  121 1130.00000 1047.00000  7.35%  31.9  267s
 83348 37720 1072.39462  238  132 1130.00000 1047.00000  7.35%  31.9  270s
 87403 41042 1058.86258   95  101 1130.00000 1047.07143  7.34%  31.9  275s
 90954 44173 1062.64670  534   90 1130.00000 1047.09531  7.34%  31.6  280s
 94077 46761 1100.10229  306   74 1130.00000 1047.24638  7.32%  31.7  285s
 96644 48421 1069.09402   62   57 1130.00000 1047.34561  7.31%  32.0  290s
 100717 51869 1093.21955  122  144 1130.00000 1047.51086  7.30%  32.2  295s
 103157 53376 1088.59829   63   87 1130.00000 1047.62307  7.29%  32.8  300s

Cutting planes:
  Learned: 9
  Gomory: 54
  Lift-and-project: 1
  Cover: 38
  Implied bound: 20
  Projected implied bound: 1
  MIR: 30
  StrongCG: 4
  Flow cover: 411
  Inf proof: 12
  Zero half: 84
  RLT: 139
  Relax-and-lift: 5

Explored 103563 nodes (3401446 simplex iterations) in 300.01 seconds (720.66 work units)
Thread count was 12 (of 12 available processors)

Solution count 10: 1130 1130 1130 ... 1130

Time limit reached
Best objective 1.130000000000e+03, best bound 1.048000000000e+03, gap 7.2566%
[[[0 0 0 ... 0 0 0]
  [0 0 0 ... 0 0 0]
  [0 0 0 ... 0 0 0]
  ...
  [0 0 0 ... 0 0 0]
  [0 0 0 ... 0 0 0]
  [0 0 0 ... 0 0 0]]

 [[0 0 0 ... 0 0 0]
  [0 0 0 ... 0 0 0]
  [0 0 0 ... 0 0 0]
  ...
  [0 0 0 ... 0 0 0]
  [0 0 0 ... 0 0 0]
  [0 0 0 ... 0 0 0]]

 [[0 0 0 ... 0 0 0]
  [0 0 0 ... 0 0 0]
  [0 0 0 ... 0 0 0]
  ...
  [0 0 0 ... 0 0 0]
  [0 0 0 ... 0 0 0]
  [0 0 0 ... 0 0 0]]]
[12. 14.  3.  8.  6.  3.  7. 19.  6.  4. 11.  8.  7.  4. 10. 12.  4.  3.
  5.  6.  5. 40.  9. 13.  2.  5.  8.  9. 41.  2. 10. 15.  9.  2. 18. 16.
 41.  7. 17. 11.  1.]
1130
INIZIO OTIMMIZAZIONE FINALE
Set parameter TimeLimit to value 20
Set parameter TimeLimit to value 20
Gurobi Optimizer version 9.5.1 build v9.5.1rc2 (linux64)
Thread count: 6 physical cores, 12 logical processors, using up to 12 threads
Optimize a model with 504 rows, 462 columns and 2163 nonzeros
Model fingerprint: 0x707814f8
Model has 420 quadratic constraints
Variable types: 0 continuous, 462 integer (441 binary)
Coefficient statistics:
  Matrix range     [1e+00, 1e+00]
  QMatrix range    [1e+00, 1e+00]
  QLMatrix range   [1e+00, 1e+00]
  Objective range  [6e+00, 2e+02]
  Bounds range     [1e+00, 2e+01]
  RHS range        [1e+00, 1e+00]
Presolve removed 62 rows and 22 columns
Presolve time: 0.00s
Presolved: 442 rows, 440 columns, 2020 nonzeros
Variable types: 0 continuous, 440 integer (420 binary)
Found heuristic solution: objective 1412.0000000

Root relaxation: objective 3.996190e+02, 86 iterations, 0.00 seconds (0.00 work units)

    Nodes    |    Current Node    |     Objective Bounds      |     Work
 Expl Unexpl |  Obj  Depth IntInf | Incumbent    BestBd   Gap | It/Node Time

     0     0  399.61905    0   38 1412.00000  399.61905  71.7%     -    0s
H    0     0                     760.0000000  399.61905  47.4%     -    0s
H    0     0                     722.0000000  399.61905  44.7%     -    0s
H    0     0                     560.0000000  399.61905  28.6%     -    0s
     0     0  478.00000    0   46  560.00000  478.00000  14.6%     -    0s
     0     0  478.00000    0   48  560.00000  478.00000  14.6%     -    0s
     0     0  478.00000    0   53  560.00000  478.00000  14.6%     -    0s
H    0     0                     510.0000000  478.00000  6.27%     -    0s
     0     0  478.00000    0   53  510.00000  478.00000  6.27%     -    0s
     0     0  478.00000    0   52  510.00000  478.00000  6.27%     -    0s
     0     0  478.00000    0   46  510.00000  478.00000  6.27%     -    0s
     0     0  478.00000    0   18  510.00000  478.00000  6.27%     -    0s
     0     0  478.00000    0   27  510.00000  478.00000  6.27%     -    0s
     0     0  478.00000    0   23  510.00000  478.00000  6.27%     -    0s
     0     0  478.00000    0   34  510.00000  478.00000  6.27%     -    0s
     0     0  478.00000    0   35  510.00000  478.00000  6.27%     -    0s
     0     0  478.00000    0   15  510.00000  478.00000  6.27%     -    0s
     0     2  478.00000    0   15  510.00000  478.00000  6.27%     -    0s
H  321   327                     506.0000000  478.00000  5.53%   6.9    0s

Optimal solution found at node 18622 - now completing solution pool...

    Nodes    |    Current Node    |      Pool Obj. Bounds     |     Work
             |                    |   Worst                   |
 Expl Unexpl |  Obj  Depth IntInf | Incumbent    BestBd   Gap | It/Node Time

 18622  1088 infeasible   35       510.00000  505.22610  0.94%   9.1    2s

Cutting planes:
  Learned: 9
  Gomory: 14
  Cover: 4
  Implied bound: 13
  Projected implied bound: 27
  MIR: 14
  StrongCG: 3
  Flow cover: 126
  Inf proof: 15
  Zero half: 12
  RLT: 4
  Relax-and-lift: 30

Explored 19539 nodes (177192 simplex iterations) in 2.06 seconds (2.21 work units)
Thread count was 12 (of 12 available processors)

Solution count 10: 506 506 506 ... 508
No other solutions better than 508

Optimal solution found (tolerance 1.00e-04)
Best objective 5.060000000000e+02, best bound 5.060000000000e+02, gap 0.0000%
Done optimization for 0-courier
N_opt 21
[[0 0 0 0 0 0 0 0 0 0 1 0 0 0 0 0 0 0 0 0 0]
 [0 0 0 0 0 0 0 0 0 0 0 0 0 0 0 0 1 0 0 0 0]
 [1 0 0 0 0 0 0 0 0 0 0 0 0 0 0 0 0 0 0 0 0]
 [0 0 0 0 1 0 0 0 0 0 0 0 0 0 0 0 0 0 0 0 0]
 [0 0 0 0 0 0 0 0 1 0 0 0 0 0 0 0 0 0 0 0 0]
 [0 0 0 0 0 0 0 0 0 0 0 0 0 0 0 0 0 0 0 1 0]
 [0 0 0 0 0 0 0 1 0 0 0 0 0 0 0 0 0 0 0 0 0]
 [0 0 1 0 0 0 0 0 0 0 0 0 0 0 0 0 0 0 0 0 0]
 [0 0 0 0 0 0 1 0 0 0 0 0 0 0 0 0 0 0 0 0 0]
 [0 0 0 0 0 0 0 0 0 0 0 0 0 0 0 0 0 1 0 0 0]
 [0 0 0 0 0 0 0 0 0 0 0 0 0 0 0 0 0 0 0 0 1]
 [0 0 0 0 0 0 0 0 0 0 0 0 0 1 0 0 0 0 0 0 0]
 [0 0 0 0 0 0 0 0 0 1 0 0 0 0 0 0 0 0 0 0 0]
 [0 0 0 1 0 0 0 0 0 0 0 0 0 0 0 0 0 0 0 0 0]
 [0 0 0 0 0 0 0 0 0 0 0 0 0 0 0 1 0 0 0 0 0]
 [0 0 0 0 0 0 0 0 0 0 0 0 1 0 0 0 0 0 0 0 0]
 [0 0 0 0 0 0 0 0 0 0 0 0 0 0 1 0 0 0 0 0 0]
 [0 0 0 0 0 0 0 0 0 0 0 0 0 0 0 0 0 0 1 0 0]
 [0 0 0 0 0 1 0 0 0 0 0 0 0 0 0 0 0 0 0 0 0]
 [0 0 0 0 0 0 0 0 0 0 0 1 0 0 0 0 0 0 0 0 0]
 [0 1 0 0 0 0 0 0 0 0 0 0 0 0 0 0 0 0 0 0 0]]
506
----------------------------------
Gurobi Optimizer version 9.5.1 build v9.5.1rc2 (linux64)
Thread count: 6 physical cores, 12 logical processors, using up to 12 threads
Optimize a model with 238 rows, 210 columns and 952 nonzeros
Model fingerprint: 0x3f99d896
Model has 182 quadratic constraints
Variable types: 0 continuous, 210 integer (196 binary)
Coefficient statistics:
  Matrix range     [1e+00, 1e+00]
  QMatrix range    [1e+00, 1e+00]
  QLMatrix range   [1e+00, 1e+00]
  Objective range  [4e+00, 8e+01]
  Bounds range     [1e+00, 1e+01]
  RHS range        [1e+00, 1e+00]
Presolve removed 41 rows and 15 columns
Presolve time: 0.00s
Presolved: 197 rows, 195 columns, 858 nonzeros
Variable types: 0 continuous, 195 integer (182 binary)
Found heuristic solution: objective 562.0000000

Root relaxation: objective 1.785714e+02, 60 iterations, 0.00 seconds (0.00 work units)

    Nodes    |    Current Node    |     Objective Bounds      |     Work
 Expl Unexpl |  Obj  Depth IntInf | Incumbent    BestBd   Gap | It/Node Time

     0     0  178.57143    0   25  562.00000  178.57143  68.2%     -    0s
H    0     0                     454.0000000  178.57143  60.7%     -    0s
H    0     0                     276.0000000  178.57143  35.3%     -    0s
H    0     0                     242.0000000  187.14286  22.7%     -    0s
     0     0  187.14286    0   22  242.00000  187.14286  22.7%     -    0s
     0     0  194.85714    0   24  242.00000  194.85714  19.5%     -    0s
     0     0  196.00000    0   22  242.00000  196.00000  19.0%     -    0s
     0     0  196.00000    0   30  242.00000  196.00000  19.0%     -    0s
     0     0  196.50000    0   29  242.00000  196.50000  18.8%     -    0s
H    0     0                     216.0000000  196.85714  8.86%     -    0s
     0     0  196.85714    0   26  216.00000  196.85714  8.86%     -    0s
     0     0  198.00000    0   25  216.00000  198.00000  8.33%     -    0s
     0     0  198.00000    0   25  216.00000  198.00000  8.33%     -    0s
     0     2  199.00000    0   25  216.00000  199.00000  7.87%     -    0s

Cutting planes:
  Learned: 5
  MIR: 2

Explored 2131 nodes (12954 simplex iterations) in 0.18 seconds (0.15 work units)
Thread count was 12 (of 12 available processors)

Solution count 10: 216 216 216 ... 218
No other solutions better than 218

Optimal solution found (tolerance 1.00e-04)
Best objective 2.160000000000e+02, best bound 2.160000000000e+02, gap 0.0000%
Done optimization for 1-courier
N_opt 14
[[0 0 0 0 0 0 0 0 0 0 0 1 0 0]
 [1 0 0 0 0 0 0 0 0 0 0 0 0 0]
 [0 0 0 1 0 0 0 0 0 0 0 0 0 0]
 [0 0 0 0 1 0 0 0 0 0 0 0 0 0]
 [0 1 0 0 0 0 0 0 0 0 0 0 0 0]
 [0 0 0 0 0 0 1 0 0 0 0 0 0 0]
 [0 0 0 0 0 0 0 0 1 0 0 0 0 0]
 [0 0 1 0 0 0 0 0 0 0 0 0 0 0]
 [0 0 0 0 0 0 0 0 0 1 0 0 0 0]
 [0 0 0 0 0 0 0 0 0 0 0 0 0 1]
 [0 0 0 0 0 0 0 0 0 0 0 0 1 0]
 [0 0 0 0 0 0 0 0 0 0 1 0 0 0]
 [0 0 0 0 0 1 0 0 0 0 0 0 0 0]
 [0 0 0 0 0 0 0 1 0 0 0 0 0 0]]
216
----------------------------------
Gurobi Optimizer version 9.5.1 build v9.5.1rc2 (linux64)
Thread count: 6 physical cores, 12 logical processors, using up to 12 threads
Optimize a model with 270 rows, 240 columns and 1095 nonzeros
Model fingerprint: 0xbfbcb31c
Model has 210 quadratic constraints
Variable types: 0 continuous, 240 integer (225 binary)
Coefficient statistics:
  Matrix range     [1e+00, 1e+00]
  QMatrix range    [1e+00, 1e+00]
  QLMatrix range   [1e+00, 1e+00]
  Objective range  [5e+00, 1e+02]
  Bounds range     [1e+00, 2e+01]
  RHS range        [1e+00, 1e+00]
Presolve removed 44 rows and 16 columns
Presolve time: 0.00s
Presolved: 226 rows, 224 columns, 994 nonzeros
Variable types: 0 continuous, 224 integer (210 binary)
Found heuristic solution: objective 836.0000000

Root relaxation: objective 3.761333e+02, 59 iterations, 0.00 seconds (0.00 work units)

    Nodes    |    Current Node    |     Objective Bounds      |     Work
 Expl Unexpl |  Obj  Depth IntInf | Incumbent    BestBd   Gap | It/Node Time

     0     0  376.13333    0   18  836.00000  376.13333  55.0%     -    0s
     0     0  393.00000    0   28  836.00000  393.00000  53.0%     -    0s
H    0     0                     540.0000000  393.00000  27.2%     -    0s
     0     0  395.00000    0   27  540.00000  395.00000  26.9%     -    0s
     0     0  400.00000    0   33  540.00000  400.00000  25.9%     -    0s
     0     0  400.00000    0   33  540.00000  400.00000  25.9%     -    0s
H    0     0                     446.0000000  400.00000  10.3%     -    0s
     0     0  400.00000    0   32  446.00000  400.00000  10.3%     -    0s
     0     0  400.00000    0   32  446.00000  400.00000  10.3%     -    0s
H    0     0                     430.0000000  400.00000  6.98%     -    0s
     0     0  400.00000    0   30  430.00000  400.00000  6.98%     -    0s
     0     0  400.00000    0   10  430.00000  400.00000  6.98%     -    0s
     0     2  400.00000    0   10  430.00000  400.00000  6.98%     -    0s

Optimal solution found at node 6503 - now completing solution pool...

    Nodes    |    Current Node    |      Pool Obj. Bounds     |     Work
             |                    |   Worst                   |
 Expl Unexpl |  Obj  Depth IntInf | Incumbent    BestBd   Gap | It/Node Time

  6503     0     cutoff   41       434.00000  432.00000  0.46%   7.1    0s

Cutting planes:
  Learned: 6
  Gomory: 8
  Cover: 2
  Implied bound: 2
  Projected implied bound: 5
  MIR: 6
  StrongCG: 1
  Flow cover: 31
  Inf proof: 2
  Zero half: 8
  RLT: 2
  Relax-and-lift: 5

Explored 6570 nodes (46537 simplex iterations) in 0.48 seconds (0.42 work units)
Thread count was 12 (of 12 available processors)

Solution count 10: 430 430 432 ... 434
No other solutions better than 434

Optimal solution found (tolerance 1.00e-04)
Best objective 4.300000000000e+02, best bound 4.300000000000e+02, gap 0.0000%
Done optimization for 2-courier
N_opt 15
[[0 0 0 0 0 1 0 0 0 0 0 0 0 0 0]
 [0 0 0 0 0 0 0 0 0 0 0 0 0 1 0]
 [0 0 0 1 0 0 0 0 0 0 0 0 0 0 0]
 [0 0 0 0 1 0 0 0 0 0 0 0 0 0 0]
 [0 0 0 0 0 0 0 0 0 0 0 1 0 0 0]
 [0 0 0 0 0 0 0 1 0 0 0 0 0 0 0]
 [0 1 0 0 0 0 0 0 0 0 0 0 0 0 0]
 [0 0 0 0 0 0 0 0 0 0 1 0 0 0 0]
 [0 0 0 0 0 0 0 0 0 1 0 0 0 0 0]
 [1 0 0 0 0 0 0 0 0 0 0 0 0 0 0]
 [0 0 1 0 0 0 0 0 0 0 0 0 0 0 0]
 [0 0 0 0 0 0 1 0 0 0 0 0 0 0 0]
 [0 0 0 0 0 0 0 0 1 0 0 0 0 0 0]
 [0 0 0 0 0 0 0 0 0 0 0 0 0 0 1]
 [0 0 0 0 0 0 0 0 0 0 0 0 1 0 0]]
430
----------------------------------
inst01-GUROBI Pre optimization: 1130
inst01-GUROBI Post optimization: 1152
-r \033[0;31mStart inst 2\033[0m
